NAME : ConvertedInstance
TYPE : CVRP
DIMENSION : 33
CAPACITY : 38000
NODE_COORD_SECTION
1 250 200
2 10 260
3 313 382
4 467 67
5 205 254
6 275 34
7 269 262
8 293 269
9 333 212
10 304 202
11 286 207
12 288 191
13 295 235
14 50 249
15 484 179
16 447 189
17 215 204
18 22 255
19 267 316
20 391 196
21 399 122
22 363 187
23 355 236
24 378 203
25 458 218
26 383 181
27 240 326
28 273 349
29 278 374
30 352 271
31 324 295
32 249 250
33 65 248
DEMAND_SECTION
1 0
2 3500
3 25705
4 713
5 2267
6 447
7 1847
8 1437
9 3720
10 1115
11 273
12 5494
13 1944
14 250
15 1500
16 3585
17 140
18 629
19 479
20 17456
21 1143
22 1919
23 826
24 3264
25 1570
26 2215
27 1239
28 580
29 5000
30 100
31 201
32 6747
33 1260
DEPOT_SECTION
1
-1
EOF
